SAT/3522457_17.param
$ LBS instance with n = 17, seed = 3522457
letting cards be [18,31,50,51,5,35,20,17,33,49,8,12,29,37,28,11,16]
